5
15
140 26
70 2
180 171
5 164
41 125
40 125
196 71
112 110
50 134
104 119
24 31
70 127
88 62
72 172
16 36
17
170 93
111 104
9 17
36 132
85 59
10 17
52 158
70 30
27 41
53 172
43 95
103 78
171 83
71 53
34 11
11 162
123 114
17
118 168
130 94
117 184
192 67
149 157
25 79
162 77
27 57
50 156
61 28
125 83
64 181
39 170
83 150
125 166
108 82
121 166
17
114 95
138 149
168 105
95 80
108 181
107 18
140 143
148 8
43 89
177 124
72 19
59 149
185 122
111 196
197 195
107 180
64 23
16
89 95
49 6
184 0
27 120
86 138
101 41
118 51
6 152
1 24
68 94
184 89
161 126
176 41
107 178
130 77
185 38
